sat
(
  (define-fun inv ((x!0 Int) (x!1 Int)) Bool
    (let ((a!1 (not (and (not (= x!0 2))
                         (not (= x!0 0))
                         (<= 0 x!1)
                         (<= 1023 x!1)
                         (<= 1024 x!1))))
          (a!2 (not (and (= x!0 2) (not (<= 0 x!1))))))
      (and a!1 (not (and (= x!0 2) (<= 0 x!1) (<= 1023 x!1) (<= 1024 x!1))) a!2)))
)
